proyfinal/src/viki/013/andrea/andrea-localstore/experimentInOfficeAgust.take6/worker_5/5e0bdfc3-b1b1-4fe5-b123-3c4737a49ceb.als.cnf.out
Reading from standard input... Use '--help' for help.
============================[ Problem Statistics ]=============================
|                                                                             |
|  Number of variables:         87638                                         |
|  Number of clauses:          161767                                         |
|  Parse time:                   0.04 s                                       |
|                                                                             |
============================[ Search Statistics ]==============================
| Conflicts |          ORIGINAL         |          LEARNT          | Progress |
|           |    Vars  Clauses Literals |    Limit  Clauses Lit/Cl |          |
===============================================================================
|       100 |   63913   110660   276584 |    40575      100     20 | 27.072 % |
|       250 |   63913   110660   276584 |    44632      250     28 | 27.072 % |
|       475 |   63912   110616   276494 |    49096      473     31 | 27.073 % |
|       812 |   63912   110616   276494 |    54005      810     45 | 27.073 % |
|      1318 |   53368    79212   199157 |    59406     1259     49 | 39.104 % |
|      2077 |   53094    78621   197700 |    65346     2012     62 | 39.417 % |
|      3216 |   53065    78173   196611 |    71881     3148     63 | 39.450 % |
|      4924 |   52820    77198   194314 |    79069     4842     56 | 39.729 % |
|      7486 |   52082    74792   188257 |    86976     6986     61 | 40.571 % |
|     11330 |   51753    73390   184897 |    95674    10390     66 | 40.947 % |
|     17096 |   51685    73092   184172 |   105241    15362     64 | 41.024 % |
===============================================================================
restarts              : 64
conflicts             : 19248          (7523 /sec)
decisions             : 65858          (0.00 % random) (25741 /sec)
propagations          : 26824343       (10484435 /sec)
conflict literals     : 1160987        (45.57 % deleted)
Memory used           : 30.91 MB
CPU time              : 2.55849 s

INDETERMINATE
